Version identifier: 22.1.0.0 | 2022-03-09 | 1a383f8ce
CPXPARAM_Read_DataCheck                          1
CPXPARAM_TimeLimit                               600
Tried aggregator 4 times.
MIP Presolve eliminated 83124 rows and 8155 columns.
MIP Presolve modified 1008 coefficients.
Aggregator did 76977 substitutions.
Reduced MIP has 8505 rows, 78416 columns, and 165497 nonzeros.
Reduced MIP has 78380 binaries, 36 generals, 0 SOSs, and 0 indicators.
Presolve time = 1.03 sec. (1035.44 ticks)
Tried aggregator 1 time.
Detecting symmetries...
Reduced MIP has 8505 rows, 78416 columns, and 165497 nonzeros.
Reduced MIP has 78380 binaries, 36 generals, 0 SOSs, and 0 indicators.
Presolve time = 0.16 sec. (120.39 ticks)
Probing fixed 54 vars, tightened 0 bounds.
Probing time = 0.40 sec. (38.90 ticks)
Clique table members: 158725.
MIP emphasis: balance optimality and feasibility.
MIP search method: dynamic search.
Parallel mode: deterministic, using up to 8 threads.
Root relaxation solution time = 1.68 sec. (679.46 ticks)

        Nodes                                         Cuts/
   Node  Left     Objective  IInf  Best Integer    Best Bound    ItCnt     Gap

      0     0       36.4079  6397                     36.4079       25         
      0     0       59.0000   902                    Cuts: 47    12298         
      0     0       59.0000   741                    Cuts: 87    20546         
      0     0       59.0000   673                ZeroHalf: 53    28286         
*     0+    0                           66.0000       59.0000            10.61%
      0     0       59.0000   667       66.0000  ZeroHalf: 32    35044   10.61%
*     0+    0                           64.0000       59.0000             7.81%
      0     0       59.0000   404       64.0000  ZeroHalf: 22    40154    7.81%
      0     0       59.0000   671       64.0000  ZeroHalf: 39    49272    7.81%
      0     0       59.0000   501       64.0000   ZeroHalf: 3    51106    7.81%
      0     0       59.0000   377       64.0000  ZeroHalf: 42    62126    7.81%
      0     0       59.0000   490       64.0000  ZeroHalf: 35    69626    7.81%
Heuristic still looking.
Heuristic still looking.
Heuristic still looking.
      0     2       59.0000   490       64.0000       59.0000    69626    7.81%
Elapsed time = 297.04 sec. (180687.83 ticks, tree = 0.02 MB, solutions = 2)
      1     3       59.0000   281       64.0000       59.0000    81057    7.81%
      2     3       59.0000   429       64.0000       59.0000    80354    7.81%
      3     4       59.0000   372       64.0000       59.0000    89566    7.81%
      4     5       59.0000   366       64.0000       59.0000   101935    7.81%
      5     4       59.0000   726       64.0000       59.0000   101258    7.81%
      6     5       59.0000   413       64.0000       59.0000    98439    7.81%
      7     6       59.0000   368       64.0000       59.0000   107472    7.81%
      8     6       59.0000   519       64.0000       59.0000   111656    7.81%
      9     7       59.0000   787       64.0000       59.0000   120960    7.81%
     10    10       59.0000   394       64.0000       59.0000   151445    7.81%
Elapsed time = 434.05 sec. (221119.86 ticks, tree = 0.04 MB, solutions = 2)
     12     9       59.0000   826       64.0000       59.0000   147520    7.81%
     13    13       59.0000   351       64.0000       59.0000   180120    7.81%
     16    15       59.0000  1168       64.0000       59.0000   203787    7.81%
     20    16       59.0000  1137       64.0000       59.0000   232635    7.81%
     23    19       59.0000  1797       64.0000       59.0000   245595    7.81%
     26    17       59.0189  1901       64.0000       59.0000   250394    7.81%
     29    19       59.0013   893       64.0000       59.0000   250607    7.81%
     31    19       59.0000   985       64.0000       59.0000   258588    7.81%
     32    15       59.0000   489       64.0000       59.0000   243877    7.81%
     33    11       59.0000   718       64.0000       59.0000   177790    7.81%
Elapsed time = 578.80 sec. (240378.51 ticks, tree = 0.04 MB, solutions = 2)
     34    16       59.0000   386       64.0000       59.0000   219229    7.81%
     35    21       59.0000   585       64.0000       59.0000   250766    7.81%
     36    28       59.0000   850       64.0000       59.0000   384541    7.81%

Zero-half cuts applied:  171
Lift and project cuts applied:  1
Gomory fractional cuts applied:  23

Root node processing (before b&c):
  Real time             =  296.73 sec. (180555.67 ticks)
Parallel b&c, 8 threads:
  Real time             =  303.35 sec. (70142.90 ticks)
  Sync time (average)   =   72.33 sec.
  Wait time (average)   =    0.00 sec.
                          ------------
Total (root+branch&cut) =  600.08 sec. (250698.57 ticks)
